c Random Network
p max    10      20
n         1  s
n        10  t
a       1       5      23
a       1       8      47
a       2       5      36
a       2       4      21
a       1       7      23
a       4       8       6
a       3       6      27
a       1       6      15
a       5       8       3
a       6       3      41
a       6      10       2
a       7       2      36
a       8       3      22
a       6       5       5
a       8       4      32
a       4       3      25
a       6       4      45
a       4       1      24
a       3       8       8
a       4       6      38
